asp/input/in_40_20_7_1.lp
#const n = 40.
#const k = 20.
#const h = 7.
tile(1,7,15).
tile(2,15,1).
tile(3,2,19).
tile(4,7,18).
tile(5,5,17).
tile(6,10,2).
tile(7,20,18).
tile(8,8,2).
tile(9,16,13).
tile(10,4,13).
tile(11,3,18).
tile(12,1,10).
tile(13,14,5).
tile(14,4,16).
tile(15,16,3).
tile(16,1,19).
tile(17,12,10).
tile(18,14,6).
tile(19,17,1).
tile(20,9,16).
tile(21,18,19).
tile(22,7,1).
tile(23,3,3).
tile(24,5,13).
tile(25,11,4).
tile(26,4,12).
tile(27,13,11).
tile(28,17,6).
tile(29,2,20).
tile(30,8,17).
tile(31,5,10).
tile(32,9,13).
tile(33,7,7).
tile(34,3,10).
tile(35,14,2).
tile(36,14,17).
tile(37,18,9).
tile(38,2,16).
tile(39,16,20).
tile(40,13,16).
