minizinc/input/in_40_20_7_1.dzn
n = 40;
k = 20;
h = 7;
tiles = array2d(1..n, 1..2,
[ 7,15
, 15,1
, 2,19
, 7,18
, 5,17
, 10,2
, 20,18
, 8,2
, 16,13
, 4,13
, 3,18
, 1,10
, 14,5
, 4,16
, 16,3
, 1,19
, 12,10
, 14,6
, 17,1
, 9,16
, 18,19
, 7,1
, 3,3
, 5,13
, 11,4
, 4,12
, 13,11
, 17,6
, 2,20
, 8,17
, 5,10
, 9,13
, 7,7
, 3,10
, 14,2
, 14,17
, 18,9
, 2,16
, 16,20
, 13,16
]);